\ENCODING=ISO-8859-1
\Problem name: 

Maximize
 obj: 0.4 y_0_0_0 + 0.4 y_0_0_1 + 0.2 y_0_0_2 + 0.4 y_0_1_0 + 0.4 y_0_1_1
      + 0.2 y_0_1_2 + 0.2 y_0_2_0 + 0.2 y_0_2_1 + 0.1 y_0_2_2 + 0.4 y_1_0_0
      + 0.4 y_1_0_1 + 0.2 y_1_0_2 + 0.25 y_1_1_0 + 0.25 y_1_1_1 + 0.125 y_1_1_2
      + 0.35 y_1_2_0 + 0.35 y_1_2_1 + 0.175 y_1_2_2 + 0.416666666666667 y_2_0_0
      + 0.416666666666667 y_2_0_1 + 0.208333333333333 y_2_0_2
      + 0.333333333333333 y_2_1_0 + 0.333333333333333 y_2_1_1
      + 0.166666666666667 y_2_1_2 + 0.25 y_2_2_0 + 0.25 y_2_2_1 + 0.125 y_2_2_2
Subject To
 c0_0#0:     y_0_0_0 + y_0_0_1 + y_0_0_2 <= 1
 c0_1#1:     y_0_1_0 + y_0_1_1 + y_0_1_2 <= 1
 c0_2#2:     y_0_2_0 + y_0_2_1 + y_0_2_2 <= 1
 c1_0#3:     y_1_0_0 + y_1_0_1 + y_1_0_2 <= 1
 c1_1#4:     y_1_1_0 + y_1_1_1 + y_1_1_2 <= 1
 c1_2#5:     y_1_2_0 + y_1_2_1 + y_1_2_2 <= 1
 c2_0#6:     y_2_0_0 + y_2_0_1 + y_2_0_2 <= 1
 c2_1#7:     y_2_1_0 + y_2_1_1 + y_2_1_2 <= 1
 c2_2#8:     y_2_2_0 + y_2_2_1 + y_2_2_2 <= 1
 d0_0_0#9:   - x_0 + y_0_0_0 <= 0
 d0_0_1#10:  - x_1 + y_0_0_1 <= 0
 d0_0_2#11:  - x_2 + y_0_0_2 <= 0
 d0_1_0#12:  - x_0 + y_0_1_0 <= 0
 d0_1_1#13:  - x_1 + y_0_1_1 <= 0
 d0_1_2#14:  - x_2 + y_0_1_2 <= 0
 d0_2_0#15:  - x_0 + y_0_2_0 <= 0
 d0_2_1#16:  - x_1 + y_0_2_1 <= 0
 d0_2_2#17:  - x_2 + y_0_2_2 <= 0
 d1_0_0#18:  - x_0 + y_1_0_0 <= 0
 d1_0_1#19:  - x_1 + y_1_0_1 <= 0
 d1_0_2#20:  - x_2 + y_1_0_2 <= 0
 d1_1_0#21:  - x_0 + y_1_1_0 <= 0
 d1_1_1#22:  - x_1 + y_1_1_1 <= 0
 d1_1_2#23:  - x_2 + y_1_1_2 <= 0
 d1_2_0#24:  - x_0 + y_1_2_0 <= 0
 d1_2_1#25:  - x_1 + y_1_2_1 <= 0
 d1_2_2#26:  - x_2 + y_1_2_2 <= 0
 d2_0_0#27:  - x_0 + y_2_0_0 <= 0
 d2_0_1#28:  - x_1 + y_2_0_1 <= 0
 d2_0_2#29:  - x_2 + y_2_0_2 <= 0
 d2_1_0#30:  - x_0 + y_2_1_0 <= 0
 d2_1_1#31:  - x_1 + y_2_1_1 <= 0
 d2_1_2#32:  - x_2 + y_2_1_2 <= 0
 d2_2_0#33:  - x_0 + y_2_2_0 <= 0
 d2_2_1#34:  - x_1 + y_2_2_1 <= 0
 d2_2_2#35:  - x_2 + y_2_2_2 <= 0
 _e0_0_0#36: x_0 + y_0_0_1 + y_0_0_2 <= 1
 _e0_0_2#37: x_2 + y_0_0_1 <= 1
 _e0_1_1#38: x_1 + y_0_1_0 <= 1
 _e0_1_2#39: x_2 + y_0_1_0 + y_0_1_1 <= 1
 _e0_2_0#40: x_0 + y_0_2_1 + y_0_2_2 <= 1
 _e0_2_1#41: x_1 + y_0_2_2 <= 1
 _e1_0_0#42: x_0 + y_1_0_1 + y_1_0_2 <= 1
 _e1_0_2#43: x_2 + y_1_0_1 <= 1
 _e1_1_1#44: x_1 + y_1_1_0 <= 1
 _e1_1_2#45: x_2 + y_1_1_0 + y_1_1_1 <= 1
 _e1_2_0#46: x_0 + y_1_2_1 + y_1_2_2 <= 1
 _e1_2_1#47: x_1 + y_1_2_2 <= 1
 _e2_0_0#48: x_0 + y_2_0_1 + y_2_0_2 <= 1
 _e2_0_2#49: x_2 + y_2_0_1 <= 1
 _e2_1_1#50: x_1 + y_2_1_0 <= 1
 _e2_1_2#51: x_2 + y_2_1_0 + y_2_1_1 <= 1
 _e2_2_0#52: x_0 + y_2_2_1 + y_2_2_2 <= 1
 _e2_2_1#53: x_1 + y_2_2_2 <= 1
Bounds
 0 <= x_0 <= 1
 0 <= x_1 <= 1
 0 <= x_2 <= 1
Generals
 x_0  x_1  x_2 
End
